44846.17
106 103 1 50 52 53 51 49 48 47 2 45 46 44 41 43 42 3 40 4 37 35 38 39 36 34 31 33 32 5 30 6 25 27 28 29 26 24 21 23 22 7 20 19 8 16 17 18 15 14 11 13 12 10 9 58 55 59 54 56 57 61 60 62 63 64 65 66 69 68 71 67 70 73 76 77 72 75 74 78 79 82 83 80 81 84 85 88 89 86 87 90 93 92 95 91 94 97 100 101 96 98 99 102 105 104 0